MX2 sheet 20 x 20 
 1.0 
  24.00000  41.56922   0.00000 
 -24.00000  41.56922   0.00000 
   0.00000   0.00000  20.00000 
 Mo   S 
 400  800 
Cartesian 
   0.00000  -0.93509   6.00000 
  -1.20000   1.14337   6.00000 
  -2.40000   3.22183   6.00000 
  -3.60000   5.30029   6.00000 
  -4.80000   7.37875   6.00000 
  -6.00000   9.45721   6.00000 
  -7.20000  11.53567   6.00000 
  -8.40000  13.61413   6.00000 
  -9.60000  15.69259   6.00000 
 -10.80000  17.77105   6.00000 
 -12.00000  19.84952   6.00000 
 -13.20000  21.92798   6.00000 
 -14.40000  24.00644   6.00000 
 -15.60000  26.08490   6.00000 
 -16.80000  28.16336   6.00000 
 -18.00000  30.24182   6.00000 
 -19.20000  32.32028   6.00000 
 -20.40000  34.39874   6.00000 
 -21.60000  36.47720   6.00000 
 -22.80000  38.55566   6.00000 
   1.20000   1.14337   6.00000 
   0.00000   3.22183   6.00000 
  -1.20000   5.30029   6.00000 
  -2.40000   7.37875   6.00000 
  -3.60000   9.45721   6.00000 
  -4.80000  11.53567   6.00000 
  -6.00000  13.61413   6.00000 
  -7.20000  15.69259   6.00000 
  -8.40000  17.77105   6.00000 
  -9.60000  19.84952   6.00000 
 -10.80000  21.92798   6.00000 
 -12.00000  24.00644   6.00000 
 -13.20000  26.08490   6.00000 
 -14.40000  28.16336   6.00000 
 -15.60000  30.24182   6.00000 
 -16.80000  32.32028   6.00000 
 -18.00000  34.39874   6.00000 
 -19.20000  36.47720   6.00000 
 -20.40000  38.55566   6.00000 
 -21.60000  40.63413   6.00000 
   2.40000   3.22183   6.00000 
   1.20000   5.30029   6.00000 
   0.00000   7.37875   6.00000 
  -1.20000   9.45721   6.00000 
  -2.40000  11.53567   6.00000 
  -3.60000  13.61413   6.00000 
  -4.80000  15.69259   6.00000 
  -6.00000  17.77105   6.00000 
  -7.20000  19.84952   6.00000 
  -8.40000  21.92798   6.00000 
  -9.60000  24.00644   6.00000 
 -10.80000  26.08490   6.00000 
 -12.00000  28.16336   6.00000 
 -13.20000  30.24182   6.00000 
 -14.40000  32.32028   6.00000 
 -15.60000  34.39874   6.00000 
 -16.80000  36.47720   6.00000 
 -18.00000  38.55566   6.00000 
 -19.20000  40.63413   6.00000 
 -20.40000  42.71259   6.00000 
   3.60000   5.30029   6.00000 
   2.40000   7.37875   6.00000 
   1.20000   9.45721   6.00000 
   0.00000  11.53567   6.00000 
  -1.20000  13.61413   6.00000 
  -2.40000  15.69259   6.00000 
  -3.60000  17.77105   6.00000 
  -4.80000  19.84952   6.00000 
  -6.00000  21.92798   6.00000 
  -7.20000  24.00644   6.00000 
  -8.40000  26.08490   6.00000 
  -9.60000  28.16336   6.00000 
 -10.80000  30.24182   6.00000 
 -12.00000  32.32028   6.00000 
 -13.20000  34.39874   6.00000 
 -14.40000  36.47720   6.00000 
 -15.60000  38.55566   6.00000 
 -16.80000  40.63413   6.00000 
 -18.00000  42.71259   6.00000 
 -19.20000  44.79105   6.00000 
   4.80000   7.37875   6.00000 
   3.60000   9.45721   6.00000 
   2.40000  11.53567   6.00000 
   1.20000  13.61413   6.00000 
   0.00000  15.69259   6.00000 
  -1.20000  17.77105   6.00000 
  -2.40000  19.84952   6.00000 
  -3.60000  21.92798   6.00000 
  -4.80000  24.00644   6.00000 
  -6.00000  26.08490   6.00000 
  -7.20000  28.16336   6.00000 
  -8.40000  30.24182   6.00000 
  -9.60000  32.32028   6.00000 
 -10.80000  34.39874   6.00000 
 -12.00000  36.47720   6.00000 
 -13.20000  38.55566   6.00000 
 -14.40000  40.63413   6.00000 
 -15.60000  42.71259   6.00000 
 -16.80000  44.79105   6.00000 
 -18.00000  46.86951   6.00000 
   6.00000   9.45721   6.00000 
   4.80000  11.53567   6.00000 
   3.60000  13.61413   6.00000 
   2.40000  15.69259   6.00000 
   1.20000  17.77105   6.00000 
   0.00000  19.84952   6.00000 
  -1.20000  21.92798   6.00000 
  -2.40000  24.00644   6.00000 
  -3.60000  26.08490   6.00000 
  -4.80000  28.16336   6.00000 
  -6.00000  30.24182   6.00000 
  -7.20000  32.32028   6.00000 
  -8.40000  34.39874   6.00000 
  -9.60000  36.47720   6.00000 
 -10.80000  38.55566   6.00000 
 -12.00000  40.63413   6.00000 
 -13.20000  42.71259   6.00000 
 -14.40000  44.79105   6.00000 
 -15.60000  46.86951   6.00000 
 -16.80000  48.94797   6.00000 
   7.20000  11.53567   6.00000 
   6.00000  13.61413   6.00000 
   4.80000  15.69259   6.00000 
   3.60000  17.77105   6.00000 
   2.40000  19.84952   6.00000 
   1.20000  21.92798   6.00000 
   0.00000  24.00644   6.00000 
  -1.20000  26.08490   6.00000 
  -2.40000  28.16336   6.00000 
  -3.60000  30.24182   6.00000 
  -4.80000  32.32028   6.00000 
  -6.00000  34.39874   6.00000 
  -7.20000  36.47720   6.00000 
  -8.40000  38.55566   6.00000 
  -9.60000  40.63413   6.00000 
 -10.80000  42.71259   6.00000 
 -12.00000  44.79105   6.00000 
 -13.20000  46.86951   6.00000 
 -14.40000  48.94797   6.00000 
 -15.60000  51.02643   6.00000 
   8.40000  13.61413   6.00000 
   7.20000  15.69259   6.00000 
   6.00000  17.77105   6.00000 
   4.80000  19.84952   6.00000 
   3.60000  21.92798   6.00000 
   2.40000  24.00644   6.00000 
   1.20000  26.08490   6.00000 
   0.00000  28.16336   6.00000 
  -1.20000  30.24182   6.00000 
  -2.40000  32.32028   6.00000 
  -3.60000  34.39874   6.00000 
  -4.80000  36.47720   6.00000 
  -6.00000  38.55566   6.00000 
  -7.20000  40.63413   6.00000 
  -8.40000  42.71259   6.00000 
  -9.60000  44.79105   6.00000 
 -10.80000  46.86951   6.00000 
 -12.00000  48.94797   6.00000 
 -13.20000  51.02643   6.00000 
 -14.40000  53.10489   6.00000 
   9.60000  15.69259   6.00000 
   8.40000  17.77105   6.00000 
   7.20000  19.84952   6.00000 
   6.00000  21.92798   6.00000 
   4.80000  24.00644   6.00000 
   3.60000  26.08490   6.00000 
   2.40000  28.16336   6.00000 
   1.20000  30.24182   6.00000 
   0.00000  32.32028   6.00000 
  -1.20000  34.39874   6.00000 
  -2.40000  36.47720   6.00000 
  -3.60000  38.55566   6.00000 
  -4.80000  40.63413   6.00000 
  -6.00000  42.71259   6.00000 
  -7.20000  44.79105   6.00000 
  -8.40000  46.86951   6.00000 
  -9.60000  48.94797   6.00000 
 -10.80000  51.02643   6.00000 
 -12.00000  53.10489   6.00000 
 -13.20000  55.18335   6.00000 
  10.80000  17.77105   6.00000 
   9.60000  19.84952   6.00000 
   8.40000  21.92798   6.00000 
   7.20000  24.00644   6.00000 
   6.00000  26.08490   6.00000 
   4.80000  28.16336   6.00000 
   3.60000  30.24182   6.00000 
   2.40000  32.32028   6.00000 
   1.20000  34.39874   6.00000 
   0.00000  36.47720   6.00000 
  -1.20000  38.55566   6.00000 
  -2.40000  40.63413   6.00000 
  -3.60000  42.71259   6.00000 
  -4.80000  44.79105   6.00000 
  -6.00000  46.86951   6.00000 
  -7.20000  48.94797   6.00000 
  -8.40000  51.02643   6.00000 
  -9.60000  53.10489   6.00000 
 -10.80000  55.18335   6.00000 
 -12.00000  57.26181   6.00000 
  12.00000  19.84952   6.00000 
  10.80000  21.92798   6.00000 
   9.60000  24.00644   6.00000 
   8.40000  26.08490   6.00000 
   7.20000  28.16336   6.00000 
   6.00000  30.24182   6.00000 
   4.80000  32.32028   6.00000 
   3.60000  34.39874   6.00000 
   2.40000  36.47720   6.00000 
   1.20000  38.55566   6.00000 
   0.00000  40.63413   6.00000 
  -1.20000  42.71259   6.00000 
  -2.40000  44.79105   6.00000 
  -3.60000  46.86951   6.00000 
  -4.80000  48.94797   6.00000 
  -6.00000  51.02643   6.00000 
  -7.20000  53.10489   6.00000 
  -8.40000  55.18335   6.00000 
  -9.60000  57.26181   6.00000 
 -10.80000  59.34027   6.00000 
  13.20000  21.92798   6.00000 
  12.00000  24.00644   6.00000 
  10.80000  26.08490   6.00000 
   9.60000  28.16336   6.00000 
   8.40000  30.24182   6.00000 
   7.20000  32.32028   6.00000 
   6.00000  34.39874   6.00000 
   4.80000  36.47720   6.00000 
   3.60000  38.55566   6.00000 
   2.40000  40.63413   6.00000 
   1.20000  42.71259   6.00000 
   0.00000  44.79105   6.00000 
  -1.20000  46.86951   6.00000 
  -2.40000  48.94797   6.00000 
  -3.60000  51.02643   6.00000 
  -4.80000  53.10489   6.00000 
  -6.00000  55.18335   6.00000 
  -7.20000  57.26181   6.00000 
  -8.40000  59.34027   6.00000 
  -9.60000  61.41873   6.00000 
  14.40000  24.00644   6.00000 
  13.20000  26.08490   6.00000 
  12.00000  28.16336   6.00000 
  10.80000  30.24182   6.00000 
   9.60000  32.32028   6.00000 
   8.40000  34.39874   6.00000 
   7.20000  36.47720   6.00000 
   6.00000  38.55566   6.00000 
   4.80000  40.63413   6.00000 
   3.60000  42.71259   6.00000 
   2.40000  44.79105   6.00000 
   1.20000  46.86951   6.00000 
   0.00000  48.94797   6.00000 
  -1.20000  51.02643   6.00000 
  -2.40000  53.10489   6.00000 
  -3.60000  55.18335   6.00000 
  -4.80000  57.26181   6.00000 
  -6.00000  59.34027   6.00000 
  -7.20000  61.41873   6.00000 
  -8.40000  63.49720   6.00000 
  15.60000  26.08490   6.00000 
  14.40000  28.16336   6.00000 
  13.20000  30.24182   6.00000 
  12.00000  32.32028   6.00000 
  10.80000  34.39874   6.00000 
   9.60000  36.47720   6.00000 
   8.40000  38.55566   6.00000 
   7.20000  40.63413   6.00000 
   6.00000  42.71259   6.00000 
   4.80000  44.79105   6.00000 
   3.60000  46.86951   6.00000 
   2.40000  48.94797   6.00000 
   1.20000  51.02643   6.00000 
   0.00000  53.10489   6.00000 
  -1.20000  55.18335   6.00000 
  -2.40000  57.26181   6.00000 
  -3.60000  59.34027   6.00000 
  -4.80000  61.41873   6.00000 
  -6.00000  63.49720   6.00000 
  -7.20000  65.57566   6.00000 
  16.80000  28.16336   6.00000 
  15.60000  30.24182   6.00000 
  14.40000  32.32028   6.00000 
  13.20000  34.39874   6.00000 
  12.00000  36.47720   6.00000 
  10.80000  38.55566   6.00000 
   9.60000  40.63413   6.00000 
   8.40000  42.71259   6.00000 
   7.20000  44.79105   6.00000 
   6.00000  46.86951   6.00000 
   4.80000  48.94797   6.00000 
   3.60000  51.02643   6.00000 
   2.40000  53.10489   6.00000 
   1.20000  55.18335   6.00000 
   0.00000  57.26181   6.00000 
  -1.20000  59.34027   6.00000 
  -2.40000  61.41873   6.00000 
  -3.60000  63.49720   6.00000 
  -4.80000  65.57566   6.00000 
  -6.00000  67.65412   6.00000 
  18.00000  30.24182   6.00000 
  16.80000  32.32028   6.00000 
  15.60000  34.39874   6.00000 
  14.40000  36.47720   6.00000 
  13.20000  38.55566   6.00000 
  12.00000  40.63413   6.00000 
  10.80000  42.71259   6.00000 
   9.60000  44.79105   6.00000 
   8.40000  46.86951   6.00000 
   7.20000  48.94797   6.00000 
   6.00000  51.02643   6.00000 
   4.80000  53.10489   6.00000 
   3.60000  55.18335   6.00000 
   2.40000  57.26181   6.00000 
   1.20000  59.34027   6.00000 
   0.00000  61.41873   6.00000 
  -1.20000  63.49720   6.00000 
  -2.40000  65.57566   6.00000 
  -3.60000  67.65412   6.00000 
  -4.80000  69.73258   6.00000 
  19.20000  32.32028   6.00000 
  18.00000  34.39874   6.00000 
  16.80000  36.47720   6.00000 
  15.60000  38.55566   6.00000 
  14.40000  40.63413   6.00000 
  13.20000  42.71259   6.00000 
  12.00000  44.79105   6.00000 
  10.80000  46.86951   6.00000 
   9.60000  48.94797   6.00000 
   8.40000  51.02643   6.00000 
   7.20000  53.10489   6.00000 
   6.00000  55.18335   6.00000 
   4.80000  57.26181   6.00000 
   3.60000  59.34027   6.00000 
   2.40000  61.41873   6.00000 
   1.20000  63.49720   6.00000 
   0.00000  65.57566   6.00000 
  -1.20000  67.65412   6.00000 
  -2.40000  69.73258   6.00000 
  -3.60000  71.81104   6.00000 
  20.40000  34.39874   6.00000 
  19.20000  36.47720   6.00000 
  18.00000  38.55566   6.00000 
  16.80000  40.63413   6.00000 
  15.60000  42.71259   6.00000 
  14.40000  44.79105   6.00000 
  13.20000  46.86951   6.00000 
  12.00000  48.94797   6.00000 
  10.80000  51.02643   6.00000 
   9.60000  53.10489   6.00000 
   8.40000  55.18335   6.00000 
   7.20000  57.26181   6.00000 
   6.00000  59.34027   6.00000 
   4.80000  61.41873   6.00000 
   3.60000  63.49720   6.00000 
   2.40000  65.57566   6.00000 
   1.20000  67.65412   6.00000 
   0.00000  69.73258   6.00000 
  -1.20000  71.81104   6.00000 
  -2.40000  73.88950   6.00000 
  21.60000  36.47720   6.00000 
  20.40000  38.55566   6.00000 
  19.20000  40.63413   6.00000 
  18.00000  42.71259   6.00000 
  16.80000  44.79105   6.00000 
  15.60000  46.86951   6.00000 
  14.40000  48.94797   6.00000 
  13.20000  51.02643   6.00000 
  12.00000  53.10489   6.00000 
  10.80000  55.18335   6.00000 
   9.60000  57.26181   6.00000 
   8.40000  59.34027   6.00000 
   7.20000  61.41873   6.00000 
   6.00000  63.49720   6.00000 
   4.80000  65.57566   6.00000 
   3.60000  67.65412   6.00000 
   2.40000  69.73258   6.00000 
   1.20000  71.81104   6.00000 
   0.00000  73.88950   6.00000 
  -1.20000  75.96796   6.00000 
  22.80000  38.55566   6.00000 
  21.60000  40.63413   6.00000 
  20.40000  42.71259   6.00000 
  19.20000  44.79105   6.00000 
  18.00000  46.86951   6.00000 
  16.80000  48.94797   6.00000 
  15.60000  51.02643   6.00000 
  14.40000  53.10489   6.00000 
  13.20000  55.18335   6.00000 
  12.00000  57.26181   6.00000 
  10.80000  59.34027   6.00000 
   9.60000  61.41873   6.00000 
   8.40000  63.49720   6.00000 
   7.20000  65.57566   6.00000 
   6.00000  67.65412   6.00000 
   4.80000  69.73258   6.00000 
   3.60000  71.81104   6.00000 
   2.40000  73.88950   6.00000 
   1.20000  75.96796   6.00000 
   0.00000  78.04642   6.00000 
   0.00000   0.46792   4.42020 
  -1.20000   2.54639   4.42020 
  -2.40000   4.62485   4.42020 
  -3.60000   6.70331   4.42020 
  -4.80000   8.78177   4.42020 
  -6.00000  10.86023   4.42020 
  -7.20000  12.93869   4.42020 
  -8.40000  15.01715   4.42020 
  -9.60000  17.09561   4.42020 
 -10.80000  19.17407   4.42020 
 -12.00000  21.25253   4.42020 
 -13.20000  23.33100   4.42020 
 -14.40000  25.40946   4.42020 
 -15.60000  27.48792   4.42020 
 -16.80000  29.56638   4.42020 
 -18.00000  31.64484   4.42020 
 -19.20000  33.72330   4.42020 
 -20.40000  35.80176   4.42020 
 -21.60000  37.88022   4.42020 
 -22.80000  39.95868   4.42020 
   1.20000   2.54639   4.42020 
   0.00000   4.62485   4.42020 
  -1.20000   6.70331   4.42020 
  -2.40000   8.78177   4.42020 
  -3.60000  10.86023   4.42020 
  -4.80000  12.93869   4.42020 
  -6.00000  15.01715   4.42020 
  -7.20000  17.09561   4.42020 
  -8.40000  19.17407   4.42020 
  -9.60000  21.25253   4.42020 
 -10.80000  23.33100   4.42020 
 -12.00000  25.40946   4.42020 
 -13.20000  27.48792   4.42020 
 -14.40000  29.56638   4.42020 
 -15.60000  31.64484   4.42020 
 -16.80000  33.72330   4.42020 
 -18.00000  35.80176   4.42020 
 -19.20000  37.88022   4.42020 
 -20.40000  39.95868   4.42020 
 -21.60000  42.03714   4.42020 
   2.40000   4.62485   4.42020 
   1.20000   6.70331   4.42020 
   0.00000   8.78177   4.42020 
  -1.20000  10.86023   4.42020 
  -2.40000  12.93869   4.42020 
  -3.60000  15.01715   4.42020 
  -4.80000  17.09561   4.42020 
  -6.00000  19.17407   4.42020 
  -7.20000  21.25253   4.42020 
  -8.40000  23.33100   4.42020 
  -9.60000  25.40946   4.42020 
 -10.80000  27.48792   4.42020 
 -12.00000  29.56638   4.42020 
 -13.20000  31.64484   4.42020 
 -14.40000  33.72330   4.42020 
 -15.60000  35.80176   4.42020 
 -16.80000  37.88022   4.42020 
 -18.00000  39.95868   4.42020 
 -19.20000  42.03714   4.42020 
 -20.40000  44.11560   4.42020 
   3.60000   6.70331   4.42020 
   2.40000   8.78177   4.42020 
   1.20000  10.86023   4.42020 
   0.00000  12.93869   4.42020 
  -1.20000  15.01715   4.42020 
  -2.40000  17.09561   4.42020 
  -3.60000  19.17407   4.42020 
  -4.80000  21.25253   4.42020 
  -6.00000  23.33100   4.42020 
  -7.20000  25.40946   4.42020 
  -8.40000  27.48792   4.42020 
  -9.60000  29.56638   4.42020 
 -10.80000  31.64484   4.42020 
 -12.00000  33.72330   4.42020 
 -13.20000  35.80176   4.42020 
 -14.40000  37.88022   4.42020 
 -15.60000  39.95868   4.42020 
 -16.80000  42.03714   4.42020 
 -18.00000  44.11560   4.42020 
 -19.20000  46.19407   4.42020 
   4.80000   8.78177   4.42020 
   3.60000  10.86023   4.42020 
   2.40000  12.93869   4.42020 
   1.20000  15.01715   4.42020 
   0.00000  17.09561   4.42020 
  -1.20000  19.17407   4.42020 
  -2.40000  21.25253   4.42020 
  -3.60000  23.33100   4.42020 
  -4.80000  25.40946   4.42020 
  -6.00000  27.48792   4.42020 
  -7.20000  29.56638   4.42020 
  -8.40000  31.64484   4.42020 
  -9.60000  33.72330   4.42020 
 -10.80000  35.80176   4.42020 
 -12.00000  37.88022   4.42020 
 -13.20000  39.95868   4.42020 
 -14.40000  42.03714   4.42020 
 -15.60000  44.11560   4.42020 
 -16.80000  46.19407   4.42020 
 -18.00000  48.27253   4.42020 
   6.00000  10.86023   4.42020 
   4.80000  12.93869   4.42020 
   3.60000  15.01715   4.42020 
   2.40000  17.09561   4.42020 
   1.20000  19.17407   4.42020 
   0.00000  21.25253   4.42020 
  -1.20000  23.33100   4.42020 
  -2.40000  25.40946   4.42020 
  -3.60000  27.48792   4.42020 
  -4.80000  29.56638   4.42020 
  -6.00000  31.64484   4.42020 
  -7.20000  33.72330   4.42020 
  -8.40000  35.80176   4.42020 
  -9.60000  37.88022   4.42020 
 -10.80000  39.95868   4.42020 
 -12.00000  42.03714   4.42020 
 -13.20000  44.11560   4.42020 
 -14.40000  46.19407   4.42020 
 -15.60000  48.27253   4.42020 
 -16.80000  50.35099   4.42020 
   7.20000  12.93869   4.42020 
   6.00000  15.01715   4.42020 
   4.80000  17.09561   4.42020 
   3.60000  19.17407   4.42020 
   2.40000  21.25253   4.42020 
   1.20000  23.33100   4.42020 
   0.00000  25.40946   4.42020 
  -1.20000  27.48792   4.42020 
  -2.40000  29.56638   4.42020 
  -3.60000  31.64484   4.42020 
  -4.80000  33.72330   4.42020 
  -6.00000  35.80176   4.42020 
  -7.20000  37.88022   4.42020 
  -8.40000  39.95868   4.42020 
  -9.60000  42.03714   4.42020 
 -10.80000  44.11560   4.42020 
 -12.00000  46.19407   4.42020 
 -13.20000  48.27253   4.42020 
 -14.40000  50.35099   4.42020 
 -15.60000  52.42945   4.42020 
   8.40000  15.01715   4.42020 
   7.20000  17.09561   4.42020 
   6.00000  19.17407   4.42020 
   4.80000  21.25253   4.42020 
   3.60000  23.33100   4.42020 
   2.40000  25.40946   4.42020 
   1.20000  27.48792   4.42020 
   0.00000  29.56638   4.42020 
  -1.20000  31.64484   4.42020 
  -2.40000  33.72330   4.42020 
  -3.60000  35.80176   4.42020 
  -4.80000  37.88022   4.42020 
  -6.00000  39.95868   4.42020 
  -7.20000  42.03714   4.42020 
  -8.40000  44.11560   4.42020 
  -9.60000  46.19407   4.42020 
 -10.80000  48.27253   4.42020 
 -12.00000  50.35099   4.42020 
 -13.20000  52.42945   4.42020 
 -14.40000  54.50791   4.42020 
   9.60000  17.09561   4.42020 
   8.40000  19.17407   4.42020 
   7.20000  21.25253   4.42020 
   6.00000  23.33100   4.42020 
   4.80000  25.40946   4.42020 
   3.60000  27.48792   4.42020 
   2.40000  29.56638   4.42020 
   1.20000  31.64484   4.42020 
   0.00000  33.72330   4.42020 
  -1.20000  35.80176   4.42020 
  -2.40000  37.88022   4.42020 
  -3.60000  39.95868   4.42020 
  -4.80000  42.03714   4.42020 
  -6.00000  44.11560   4.42020 
  -7.20000  46.19407   4.42020 
  -8.40000  48.27253   4.42020 
  -9.60000  50.35099   4.42020 
 -10.80000  52.42945   4.42020 
 -12.00000  54.50791   4.42020 
 -13.20000  56.58637   4.42020 
  10.80000  19.17407   4.42020 
   9.60000  21.25253   4.42020 
   8.40000  23.33100   4.42020 
   7.20000  25.40946   4.42020 
   6.00000  27.48792   4.42020 
   4.80000  29.56638   4.42020 
   3.60000  31.64484   4.42020 
   2.40000  33.72330   4.42020 
   1.20000  35.80176   4.42020 
   0.00000  37.88022   4.42020 
  -1.20000  39.95868   4.42020 
  -2.40000  42.03714   4.42020 
  -3.60000  44.11560   4.42020 
  -4.80000  46.19407   4.42020 
  -6.00000  48.27253   4.42020 
  -7.20000  50.35099   4.42020 
  -8.40000  52.42945   4.42020 
  -9.60000  54.50791   4.42020 
 -10.80000  56.58637   4.42020 
 -12.00000  58.66483   4.42020 
  12.00000  21.25253   4.42020 
  10.80000  23.33100   4.42020 
   9.60000  25.40946   4.42020 
   8.40000  27.48792   4.42020 
   7.20000  29.56638   4.42020 
   6.00000  31.64484   4.42020 
   4.80000  33.72330   4.42020 
   3.60000  35.80176   4.42020 
   2.40000  37.88022   4.42020 
   1.20000  39.95868   4.42020 
   0.00000  42.03714   4.42020 
  -1.20000  44.11560   4.42020 
  -2.40000  46.19407   4.42020 
  -3.60000  48.27253   4.42020 
  -4.80000  50.35099   4.42020 
  -6.00000  52.42945   4.42020 
  -7.20000  54.50791   4.42020 
  -8.40000  56.58637   4.42020 
  -9.60000  58.66483   4.42020 
 -10.80000  60.74329   4.42020 
  13.20000  23.33100   4.42020 
  12.00000  25.40946   4.42020 
  10.80000  27.48792   4.42020 
   9.60000  29.56638   4.42020 
   8.40000  31.64484   4.42020 
   7.20000  33.72330   4.42020 
   6.00000  35.80176   4.42020 
   4.80000  37.88022   4.42020 
   3.60000  39.95868   4.42020 
   2.40000  42.03714   4.42020 
   1.20000  44.11560   4.42020 
   0.00000  46.19407   4.42020 
  -1.20000  48.27253   4.42020 
  -2.40000  50.35099   4.42020 
  -3.60000  52.42945   4.42020 
  -4.80000  54.50791   4.42020 
  -6.00000  56.58637   4.42020 
  -7.20000  58.66483   4.42020 
  -8.40000  60.74329   4.42020 
  -9.60000  62.82175   4.42020 
  14.40000  25.40946   4.42020 
  13.20000  27.48792   4.42020 
  12.00000  29.56638   4.42020 
  10.80000  31.64484   4.42020 
   9.60000  33.72330   4.42020 
   8.40000  35.80176   4.42020 
   7.20000  37.88022   4.42020 
   6.00000  39.95868   4.42020 
   4.80000  42.03714   4.42020 
   3.60000  44.11560   4.42020 
   2.40000  46.19407   4.42020 
   1.20000  48.27253   4.42020 
   0.00000  50.35099   4.42020 
  -1.20000  52.42945   4.42020 
  -2.40000  54.50791   4.42020 
  -3.60000  56.58637   4.42020 
  -4.80000  58.66483   4.42020 
  -6.00000  60.74329   4.42020 
  -7.20000  62.82175   4.42020 
  -8.40000  64.90021   4.42020 
  15.60000  27.48792   4.42020 
  14.40000  29.56638   4.42020 
  13.20000  31.64484   4.42020 
  12.00000  33.72330   4.42020 
  10.80000  35.80176   4.42020 
   9.60000  37.88022   4.42020 
   8.40000  39.95868   4.42020 
   7.20000  42.03714   4.42020 
   6.00000  44.11560   4.42020 
   4.80000  46.19407   4.42020 
   3.60000  48.27253   4.42020 
   2.40000  50.35099   4.42020 
   1.20000  52.42945   4.42020 
   0.00000  54.50791   4.42020 
  -1.20000  56.58637   4.42020 
  -2.40000  58.66483   4.42020 
  -3.60000  60.74329   4.42020 
  -4.80000  62.82175   4.42020 
  -6.00000  64.90021   4.42020 
  -7.20000  66.97868   4.42020 
  16.80000  29.56638   4.42020 
  15.60000  31.64484   4.42020 
  14.40000  33.72330   4.42020 
  13.20000  35.80176   4.42020 
  12.00000  37.88022   4.42020 
  10.80000  39.95868   4.42020 
   9.60000  42.03714   4.42020 
   8.40000  44.11560   4.42020 
   7.20000  46.19407   4.42020 
   6.00000  48.27253   4.42020 
   4.80000  50.35099   4.42020 
   3.60000  52.42945   4.42020 
   2.40000  54.50791   4.42020 
   1.20000  56.58637   4.42020 
   0.00000  58.66483   4.42020 
  -1.20000  60.74329   4.42020 
  -2.40000  62.82175   4.42020 
  -3.60000  64.90021   4.42020 
  -4.80000  66.97868   4.42020 
  -6.00000  69.05714   4.42020 
  18.00000  31.64484   4.42020 
  16.80000  33.72330   4.42020 
  15.60000  35.80176   4.42020 
  14.40000  37.88022   4.42020 
  13.20000  39.95868   4.42020 
  12.00000  42.03714   4.42020 
  10.80000  44.11560   4.42020 
   9.60000  46.19407   4.42020 
   8.40000  48.27253   4.42020 
   7.20000  50.35099   4.42020 
   6.00000  52.42945   4.42020 
   4.80000  54.50791   4.42020 
   3.60000  56.58637   4.42020 
   2.40000  58.66483   4.42020 
   1.20000  60.74329   4.42020 
   0.00000  62.82175   4.42020 
  -1.20000  64.90021   4.42020 
  -2.40000  66.97868   4.42020 
  -3.60000  69.05714   4.42020 
  -4.80000  71.13560   4.42020 
  19.20000  33.72330   4.42020 
  18.00000  35.80176   4.42020 
  16.80000  37.88022   4.42020 
  15.60000  39.95868   4.42020 
  14.40000  42.03714   4.42020 
  13.20000  44.11560   4.42020 
  12.00000  46.19407   4.42020 
  10.80000  48.27253   4.42020 
   9.60000  50.35099   4.42020 
   8.40000  52.42945   4.42020 
   7.20000  54.50791   4.42020 
   6.00000  56.58637   4.42020 
   4.80000  58.66483   4.42020 
   3.60000  60.74329   4.42020 
   2.40000  62.82175   4.42020 
   1.20000  64.90021   4.42020 
   0.00000  66.97868   4.42020 
  -1.20000  69.05714   4.42020 
  -2.40000  71.13560   4.42020 
  -3.60000  73.21406   4.42020 
  20.40000  35.80176   4.42020 
  19.20000  37.88022   4.42020 
  18.00000  39.95868   4.42020 
  16.80000  42.03714   4.42020 
  15.60000  44.11560   4.42020 
  14.40000  46.19407   4.42020 
  13.20000  48.27253   4.42020 
  12.00000  50.35099   4.42020 
  10.80000  52.42945   4.42020 
   9.60000  54.50791   4.42020 
   8.40000  56.58637   4.42020 
   7.20000  58.66483   4.42020 
   6.00000  60.74329   4.42020 
   4.80000  62.82175   4.42020 
   3.60000  64.90021   4.42020 
   2.40000  66.97868   4.42020 
   1.20000  69.05714   4.42020 
   0.00000  71.13560   4.42020 
  -1.20000  73.21406   4.42020 
  -2.40000  75.29252   4.42020 
  21.60000  37.88022   4.42020 
  20.40000  39.95868   4.42020 
  19.20000  42.03714   4.42020 
  18.00000  44.11560   4.42020 
  16.80000  46.19407   4.42020 
  15.60000  48.27253   4.42020 
  14.40000  50.35099   4.42020 
  13.20000  52.42945   4.42020 
  12.00000  54.50791   4.42020 
  10.80000  56.58637   4.42020 
   9.60000  58.66483   4.42020 
   8.40000  60.74329   4.42020 
   7.20000  62.82175   4.42020 
   6.00000  64.90021   4.42020 
   4.80000  66.97868   4.42020 
   3.60000  69.05714   4.42020 
   2.40000  71.13560   4.42020 
   1.20000  73.21406   4.42020 
   0.00000  75.29252   4.42020 
  -1.20000  77.37098   4.42020 
  22.80000  39.95868   4.42020 
  21.60000  42.03714   4.42020 
  20.40000  44.11560   4.42020 
  19.20000  46.19407   4.42020 
  18.00000  48.27253   4.42020 
  16.80000  50.35099   4.42020 
  15.60000  52.42945   4.42020 
  14.40000  54.50791   4.42020 
  13.20000  56.58637   4.42020 
  12.00000  58.66483   4.42020 
  10.80000  60.74329   4.42020 
   9.60000  62.82175   4.42020 
   8.40000  64.90021   4.42020 
   7.20000  66.97868   4.42020 
   6.00000  69.05714   4.42020 
   4.80000  71.13560   4.42020 
   3.60000  73.21406   4.42020 
   2.40000  75.29252   4.42020 
   1.20000  77.37098   4.42020 
   0.00000  79.44944   4.42020 
   0.00000   0.46792   7.57980 
  -1.20000   2.54639   7.57980 
  -2.40000   4.62485   7.57980 
  -3.60000   6.70331   7.57980 
  -4.80000   8.78177   7.57980 
  -6.00000  10.86023   7.57980 
  -7.20000  12.93869   7.57980 
  -8.40000  15.01715   7.57980 
  -9.60000  17.09561   7.57980 
 -10.80000  19.17407   7.57980 
 -12.00000  21.25253   7.57980 
 -13.20000  23.33100   7.57980 
 -14.40000  25.40946   7.57980 
 -15.60000  27.48792   7.57980 
 -16.80000  29.56638   7.57980 
 -18.00000  31.64484   7.57980 
 -19.20000  33.72330   7.57980 
 -20.40000  35.80176   7.57980 
 -21.60000  37.88022   7.57980 
 -22.80000  39.95868   7.57980 
   1.20000   2.54639   7.57980 
   0.00000   4.62485   7.57980 
  -1.20000   6.70331   7.57980 
  -2.40000   8.78177   7.57980 
  -3.60000  10.86023   7.57980 
  -4.80000  12.93869   7.57980 
  -6.00000  15.01715   7.57980 
  -7.20000  17.09561   7.57980 
  -8.40000  19.17407   7.57980 
  -9.60000  21.25253   7.57980 
 -10.80000  23.33100   7.57980 
 -12.00000  25.40946   7.57980 
 -13.20000  27.48792   7.57980 
 -14.40000  29.56638   7.57980 
 -15.60000  31.64484   7.57980 
 -16.80000  33.72330   7.57980 
 -18.00000  35.80176   7.57980 
 -19.20000  37.88022   7.57980 
 -20.40000  39.95868   7.57980 
 -21.60000  42.03714   7.57980 
   2.40000   4.62485   7.57980 
   1.20000   6.70331   7.57980 
   0.00000   8.78177   7.57980 
  -1.20000  10.86023   7.57980 
  -2.40000  12.93869   7.57980 
  -3.60000  15.01715   7.57980 
  -4.80000  17.09561   7.57980 
  -6.00000  19.17407   7.57980 
  -7.20000  21.25253   7.57980 
  -8.40000  23.33100   7.57980 
  -9.60000  25.40946   7.57980 
 -10.80000  27.48792   7.57980 
 -12.00000  29.56638   7.57980 
 -13.20000  31.64484   7.57980 
 -14.40000  33.72330   7.57980 
 -15.60000  35.80176   7.57980 
 -16.80000  37.88022   7.57980 
 -18.00000  39.95868   7.57980 
 -19.20000  42.03714   7.57980 
 -20.40000  44.11560   7.57980 
   3.60000   6.70331   7.57980 
   2.40000   8.78177   7.57980 
   1.20000  10.86023   7.57980 
   0.00000  12.93869   7.57980 
  -1.20000  15.01715   7.57980 
  -2.40000  17.09561   7.57980 
  -3.60000  19.17407   7.57980 
  -4.80000  21.25253   7.57980 
  -6.00000  23.33100   7.57980 
  -7.20000  25.40946   7.57980 
  -8.40000  27.48792   7.57980 
  -9.60000  29.56638   7.57980 
 -10.80000  31.64484   7.57980 
 -12.00000  33.72330   7.57980 
 -13.20000  35.80176   7.57980 
 -14.40000  37.88022   7.57980 
 -15.60000  39.95868   7.57980 
 -16.80000  42.03714   7.57980 
 -18.00000  44.11560   7.57980 
 -19.20000  46.19407   7.57980 
   4.80000   8.78177   7.57980 
   3.60000  10.86023   7.57980 
   2.40000  12.93869   7.57980 
   1.20000  15.01715   7.57980 
   0.00000  17.09561   7.57980 
  -1.20000  19.17407   7.57980 
  -2.40000  21.25253   7.57980 
  -3.60000  23.33100   7.57980 
  -4.80000  25.40946   7.57980 
  -6.00000  27.48792   7.57980 
  -7.20000  29.56638   7.57980 
  -8.40000  31.64484   7.57980 
  -9.60000  33.72330   7.57980 
 -10.80000  35.80176   7.57980 
 -12.00000  37.88022   7.57980 
 -13.20000  39.95868   7.57980 
 -14.40000  42.03714   7.57980 
 -15.60000  44.11560   7.57980 
 -16.80000  46.19407   7.57980 
 -18.00000  48.27253   7.57980 
   6.00000  10.86023   7.57980 
   4.80000  12.93869   7.57980 
   3.60000  15.01715   7.57980 
   2.40000  17.09561   7.57980 
   1.20000  19.17407   7.57980 
   0.00000  21.25253   7.57980 
  -1.20000  23.33100   7.57980 
  -2.40000  25.40946   7.57980 
  -3.60000  27.48792   7.57980 
  -4.80000  29.56638   7.57980 
  -6.00000  31.64484   7.57980 
  -7.20000  33.72330   7.57980 
  -8.40000  35.80176   7.57980 
  -9.60000  37.88022   7.57980 
 -10.80000  39.95868   7.57980 
 -12.00000  42.03714   7.57980 
 -13.20000  44.11560   7.57980 
 -14.40000  46.19407   7.57980 
 -15.60000  48.27253   7.57980 
 -16.80000  50.35099   7.57980 
   7.20000  12.93869   7.57980 
   6.00000  15.01715   7.57980 
   4.80000  17.09561   7.57980 
   3.60000  19.17407   7.57980 
   2.40000  21.25253   7.57980 
   1.20000  23.33100   7.57980 
   0.00000  25.40946   7.57980 
  -1.20000  27.48792   7.57980 
  -2.40000  29.56638   7.57980 
  -3.60000  31.64484   7.57980 
  -4.80000  33.72330   7.57980 
  -6.00000  35.80176   7.57980 