Te24Mo15_MTB
1.0
  10.5600000000000005    6.0968188426424481    0.0000000000000000
   0.0000000000000000   12.1936376852848962    0.0000000000000000
   0.0000000000000000    0.0000000000000000   20.0000000000000000
Mo Te
15 24
direct
  -0.0000000000000000    0.6666666666666667    0.5000000000000000 Mo
   0.0000000000000000    0.5000000000000000    0.5000000000000000 Mo
   0.1666666666666667    0.6666666666666666    0.5000000000000000 Mo
   0.3333333333333333    0.8333333333333333    0.5000000000000000 Mo
   0.6666666666666666    0.8333333333333331    0.5000000000000000 Mo
   0.0000000000000000    0.0000000000000000    0.5000000000000000 Mo
   0.3333333333333333   -0.0000000000000000    0.5000000000000000 Mo
   0.1666666666666667    0.1666666666666667    0.5000000000000000 Mo
   0.4999999999999999    0.1666666666666667    0.5000000000000000 Mo
   0.3333333333333333    0.3333333333333333    0.5000000000000000 Mo
   0.6666666666666667    0.3333333333333334    0.5000000000000000 Mo
   0.5000000000000000    0.4999999999999999    0.5000000000000000 Mo
   0.6666666666666666    0.6666666666666666    0.5000000000000000 Mo
   0.8333333333333333    0.0000000000000000    0.5000000000000000 Mo
   0.8333333333333334    0.3333333333333333    0.5000000000000000 Mo
  -0.0000000000000000    0.8333333333333333    0.4150000000000000 Te
  -0.0000000000000000    0.8333333333333333    0.5850000000000000 Te
  -0.0000000000000001    0.3333333333333333    0.4150000000000000 Te
  -0.0000000000000001    0.3333333333333333    0.5850000000000000 Te
   0.1666666666666667    0.5000000000000000    0.4150000000000000 Te
   0.1666666666666667    0.5000000000000000    0.5850000000000000 Te
   0.3333333333333333    0.6666666666666666    0.4150000000000000 Te
   0.3333333333333333    0.6666666666666666    0.5850000000000000 Te
   0.4999999999999999    0.8333333333333331    0.4150000000000000 Te
   0.4999999999999999    0.8333333333333331    0.5850000000000000 Te
   0.1666666666666667   -0.0000000000000000    0.4150000000000000 Te
   0.1666666666666667   -0.0000000000000000    0.5850000000000000 Te
   0.3333333333333333    0.1666666666666666    0.4150000000000000 Te
   0.3333333333333333    0.1666666666666666    0.5850000000000000 Te
   0.5000000000000000    0.3333333333333333    0.4150000000000000 Te
   0.5000000000000000    0.3333333333333333    0.5850000000000000 Te
   0.6666666666666666    0.4999999999999999    0.4150000000000000 Te
   0.6666666666666666    0.4999999999999999    0.5850000000000000 Te
   0.8333333333333333    0.6666666666666665    0.4150000000000000 Te
   0.8333333333333333    0.6666666666666665    0.5850000000000000 Te
   0.6666666666666666   -0.0000000000000000    0.4150000000000000 Te
   0.6666666666666666   -0.0000000000000000    0.5850000000000000 Te
   0.8333333333333334    0.1666666666666666    0.4150000000000000 Te
   0.8333333333333334    0.1666666666666666    0.5850000000000000 Te
