Te28Mo17_MTB
1.0
   8.8000000000000007    9.1452282639636717    0.0000000000000000
  -1.7600000000000005   15.2420471066061207    0.0000000000000000
   0.0000000000000000    0.0000000000000000   20.0000000000000000
Mo Te
17 28
direct
   0.3809523809523809    0.9047619047619048    0.5000000000000000 Mo
   0.5952380952380952    0.9761904761904763    0.5000000000000000 Mo
   0.0952380952380952    0.4761904761904763    0.5000000000000000 Mo
   0.1428571428571429    0.7142857142857143    0.5000000000000000 Mo
   0.3571428571428572    0.7857142857142858    0.5000000000000000 Mo
   0.7380952380952379    0.6904761904761906    0.5000000000000000 Mo
   0.9523809523809521    0.7619047619047621    0.5000000000000000 Mo
   0.0714285714285715    0.3571428571428572    0.5000000000000000 Mo
   0.2857142857142857    0.4285714285714285    0.5000000000000000 Mo
   0.5000000000000000    0.5000000000000000    0.5000000000000000 Mo
   0.7142857142857143    0.5714285714285715    0.5000000000000000 Mo
   0.0000000000000000    0.0000000000000000    0.5000000000000000 Mo
   0.2142857142857143    0.0714285714285714    0.5000000000000000 Mo
   0.4285714285714285    0.1428571428571429    0.5000000000000000 Mo
   0.8095238095238095    0.0476190476190477    0.5000000000000000 Mo
   0.6428571428571429    0.2142857142857142    0.5000000000000000 Mo
   0.8571428571428571    0.2857142857142858    0.5000000000000000 Mo
   0.1904761904761905    0.9523809523809523    0.4150000000000000 Te
   0.1904761904761905    0.9523809523809523    0.5850000000000000 Te
   0.1190476190476191    0.5952380952380952    0.4150000000000000 Te
   0.1190476190476191    0.5952380952380952    0.5850000000000000 Te
   0.3333333333333333    0.6666666666666666    0.4150000000000000 Te
   0.3333333333333333    0.6666666666666666    0.5850000000000000 Te
   0.5476190476190474    0.7380952380952381    0.4150000000000000 Te
   0.5476190476190474    0.7380952380952381    0.5850000000000000 Te
   0.7619047619047619    0.8095238095238095    0.4150000000000000 Te
   0.7619047619047619    0.8095238095238095    0.5850000000000000 Te
   0.9761904761904761    0.8809523809523810    0.4150000000000000 Te
   0.9761904761904761    0.8809523809523810    0.5850000000000000 Te
   0.0476190476190476    0.2380952380952381    0.4150000000000000 Te
   0.0476190476190476    0.2380952380952381    0.5850000000000000 Te
   0.2619047619047619    0.3095238095238096    0.4150000000000000 Te
   0.2619047619047619    0.3095238095238096    0.5850000000000000 Te
   0.4761904761904762    0.3809523809523810    0.4150000000000000 Te
   0.4761904761904762    0.3809523809523810    0.5850000000000000 Te
   0.6904761904761904    0.4523809523809523    0.4150000000000000 Te
   0.6904761904761904    0.4523809523809523    0.5850000000000000 Te
   0.9047619047619045    0.5238095238095238    0.4150000000000000 Te
   0.9047619047619045    0.5238095238095238    0.5850000000000000 Te
   0.4047619047619047    0.0238095238095238    0.4150000000000000 Te
   0.4047619047619047    0.0238095238095238    0.5850000000000000 Te
   0.6190476190476191    0.0952380952380952    0.4150000000000000 Te
   0.6190476190476191    0.0952380952380952    0.5850000000000000 Te
   0.8333333333333333    0.1666666666666667    0.4150000000000000 Te
   0.8333333333333333    0.1666666666666667    0.5850000000000000 Te
