Te78Mo45_MTB
1.0
  21.1200000000000010    6.0968188426424481    0.0000000000000000
   5.2800000000000002   21.3388659492485679    0.0000000000000000
   0.0000000000000000    0.0000000000000000   20.0000000000000000
Mo Te
45 78
direct
   0.0512820512820511    0.7948717948717949    0.5000000000000000 Mo
   0.0256410256410256    0.5641025641025642    0.5000000000000000 Mo
   0.0769230769230769    0.6923076923076924    0.5000000000000000 Mo
   0.1282051282051281    0.8205128205128206    0.5000000000000000 Mo
   0.1794871794871794    0.9487179487179488    0.5000000000000000 Mo
   0.0000000000000000    0.0000000000000000    0.5000000000000000 Mo
   0.1538461538461538    0.0512820512820513    0.5000000000000000 Mo
   0.0512820512820513    0.1282051282051282    0.5000000000000000 Mo
   0.2051282051282051    0.1794871794871795    0.5000000000000000 Mo
   0.1025641025641025    0.2564102564102564    0.5000000000000000 Mo
   0.2564102564102564    0.3076923076923078    0.5000000000000000 Mo
   0.1538461538461538    0.3846153846153846    0.5000000000000000 Mo
   0.3076923076923076    0.4358974358974360    0.5000000000000000 Mo
   0.2051282051282051    0.5128205128205129    0.5000000000000000 Mo
   0.3589743589743589    0.5641025641025641    0.5000000000000000 Mo
   0.2564102564102563    0.6410256410256411    0.5000000000000000 Mo
   0.4102564102564101    0.6923076923076923    0.5000000000000000 Mo
   0.3076923076923077    0.7692307692307693    0.5000000000000000 Mo
   0.3589743589743589    0.8974358974358975    0.5000000000000000 Mo
   0.5128205128205127    0.9487179487179488    0.5000000000000000 Mo
   0.3333333333333332    0.0000000000000000    0.5000000000000000 Mo
   0.3846153846153845    0.1282051282051282    0.5000000000000000 Mo
   0.4358974358974358    0.2564102564102565    0.5000000000000000 Mo
   0.4871794871794871    0.3846153846153847    0.5000000000000000 Mo
   0.5384615384615382    0.5128205128205128    0.5000000000000000 Mo
   0.4871794871794871    0.7179487179487180    0.5000000000000000 Mo
   0.5384615384615383    0.8461538461538463    0.5000000000000000 Mo
   0.6923076923076921    0.8974358974358976    0.5000000000000000 Mo
   0.5641025641025641    0.0769230769230769    0.5000000000000000 Mo
   0.6153846153846153    0.2051282051282052    0.5000000000000000 Mo
   0.6666666666666666    0.3333333333333334    0.5000000000000000 Mo
   0.6153846153846153    0.5384615384615385    0.5000000000000000 Mo
   0.6666666666666666    0.6666666666666666    0.5000000000000000 Mo
   0.7179487179487177    0.7948717948717949    0.5000000000000000 Mo
   0.8717948717948718    0.8461538461538463    0.5000000000000000 Mo
   0.9230769230769230    0.9743589743589746    0.5000000000000000 Mo
   0.7435897435897436    0.0256410256410256    0.5000000000000000 Mo
   0.7948717948717947    0.1538461538461539    0.5000000000000000 Mo
   0.7435897435897435    0.3589743589743590    0.5000000000000000 Mo
   0.7948717948717947    0.4871794871794873    0.5000000000000000 Mo
   0.8461538461538461    0.6153846153846154    0.5000000000000000 Mo
   0.8974358974358972    0.7435897435897436    0.5000000000000000 Mo
   0.8717948717948716    0.1794871794871795    0.5000000000000000 Mo
   0.9230769230769230    0.3076923076923077    0.5000000000000000 Mo
   0.9743589743589742    0.4358974358974360    0.5000000000000000 Mo
   0.0256410256410256    0.8974358974358975    0.4150000000000000 Te
   0.0256410256410256    0.8974358974358975    0.5850000000000000 Te
  -0.0000000000000000    0.3333333333333334    0.4150000000000000 Te
  -0.0000000000000000    0.3333333333333334    0.5850000000000000 Te
   0.0512820512820512    0.4615384615384616    0.4150000000000000 Te
   0.0512820512820512    0.4615384615384616    0.5850000000000000 Te
   0.1025641025641025    0.5897435897435898    0.4150000000000000 Te
   0.1025641025641025    0.5897435897435898    0.5850000000000000 Te
   0.1538461538461537    0.7179487179487180    0.4150000000000000 Te
   0.1538461538461537    0.7179487179487180    0.5850000000000000 Te
   0.2051282051282050    0.8461538461538463    0.4150000000000000 Te
   0.2051282051282050    0.8461538461538463    0.5850000000000000 Te
   0.2564102564102563    0.9743589743589745    0.4150000000000000 Te
   0.2564102564102563    0.9743589743589745    0.5850000000000000 Te
   0.0769230769230769    0.0256410256410256    0.4150000000000000 Te
   0.0769230769230769    0.0256410256410256    0.5850000000000000 Te
   0.1282051282051282    0.1538461538461539    0.4150000000000000 Te
   0.1282051282051282    0.1538461538461539    0.5850000000000000 Te
   0.1794871794871795    0.2820512820512821    0.4150000000000000 Te
   0.1794871794871795    0.2820512820512821    0.5850000000000000 Te
   0.2307692307692307    0.4102564102564103    0.4150000000000000 Te
   0.2307692307692307    0.4102564102564103    0.5850000000000000 Te
   0.2820512820512819    0.5384615384615384    0.4150000000000000 Te
   0.2820512820512819    0.5384615384615384    0.5850000000000000 Te
   0.3333333333333332    0.6666666666666667    0.4150000000000000 Te
   0.3333333333333332    0.6666666666666667    0.5850000000000000 Te
   0.3846153846153846    0.7948717948717949    0.4150000000000000 Te
   0.3846153846153846    0.7948717948717949    0.5850000000000000 Te
   0.4358974358974358    0.9230769230769231    0.4150000000000000 Te
   0.4358974358974358    0.9230769230769231    0.5850000000000000 Te
   0.3076923076923077    0.1025641025641026    0.4150000000000000 Te
   0.3076923076923077    0.1025641025641026    0.5850000000000000 Te
   0.3589743589743589    0.2307692307692308    0.4150000000000000 Te
   0.3589743589743589    0.2307692307692308    0.5850000000000000 Te
   0.4102564102564102    0.3589743589743590    0.4150000000000000 Te
   0.4102564102564102    0.3589743589743590    0.5850000000000000 Te
   0.4615384615384615    0.4871794871794871    0.4150000000000000 Te
   0.4615384615384615    0.4871794871794871    0.5850000000000000 Te
   0.5128205128205127    0.6153846153846154    0.4150000000000000 Te
   0.5128205128205127    0.6153846153846154    0.5850000000000000 Te
   0.5641025641025640    0.7435897435897436    0.4150000000000000 Te
   0.5641025641025640    0.7435897435897436    0.5850000000000000 Te
   0.6153846153846152    0.8717948717948719    0.4150000000000000 Te
   0.6153846153846152    0.8717948717948719    0.5850000000000000 Te
   0.4871794871794872    0.0512820512820513    0.4150000000000000 Te
   0.4871794871794872    0.0512820512820513    0.5850000000000000 Te
   0.5384615384615384    0.1794871794871795    0.4150000000000000 Te
   0.5384615384615384    0.1794871794871795    0.5850000000000000 Te
   0.5897435897435898    0.3076923076923077    0.4150000000000000 Te
   0.5897435897435898    0.3076923076923077    0.5850000000000000 Te
   0.6410256410256411    0.4358974358974358    0.4150000000000000 Te
   0.6410256410256411    0.4358974358974358    0.5850000000000000 Te
   0.6923076923076922    0.5641025641025641    0.4150000000000000 Te
   0.6923076923076922    0.5641025641025641    0.5850000000000000 Te
   0.7435897435897434    0.6923076923076924    0.4150000000000000 Te
   0.7435897435897434    0.6923076923076924    0.5850000000000000 Te
   0.7948717948717948    0.8205128205128206    0.4150000000000000 Te
   0.7948717948717948    0.8205128205128206    0.5850000000000000 Te
   0.8461538461538461    0.9487179487179488    0.4150000000000000 Te
   0.8461538461538461    0.9487179487179488    0.5850000000000000 Te
   0.6666666666666665   -0.0000000000000000    0.4150000000000000 Te
   0.6666666666666665   -0.0000000000000000    0.5850000000000000 Te
   0.7179487179487180    0.1282051282051282    0.4150000000000000 Te
   0.7179487179487180    0.1282051282051282    0.5850000000000000 Te
   0.7692307692307692    0.2564102564102564    0.4150000000000000 Te
   0.7692307692307692    0.2564102564102564    0.5850000000000000 Te
   0.8205128205128204    0.3846153846153846    0.4150000000000000 Te
   0.8205128205128204    0.3846153846153846    0.5850000000000000 Te
   0.8717948717948717    0.5128205128205128    0.4150000000000000 Te
   0.8717948717948717    0.5128205128205128    0.5850000000000000 Te
   0.9230769230769229    0.6410256410256411    0.4150000000000000 Te
   0.9230769230769229    0.6410256410256411    0.5850000000000000 Te
   0.9743589743589743    0.7692307692307693    0.4150000000000000 Te
   0.9743589743589743    0.7692307692307693    0.5850000000000000 Te
   0.8974358974358972    0.0769230769230770    0.4150000000000000 Te
   0.8974358974358972    0.0769230769230770    0.5850000000000000 Te
   0.9487179487179485    0.2051282051282052    0.4150000000000000 Te
   0.9487179487179485    0.2051282051282052    0.5850000000000000 Te
