Te50Mo30_MTB
1.0
  17.6000000000000014    0.0000000000000000    0.0000000000000000
   8.8000000000000007   15.2420471066061207    0.0000000000000000
   0.0000000000000000    0.0000000000000000   20.0000000000000000
Mo Te
30 50
direct
   0.0000000000000000    0.0000000000000000    0.5000000000000000 Mo
   0.1333333333333333    0.1333333333333333    0.5000000000000000 Mo
  -0.0000000000000000    0.2000000000000000    0.5000000000000000 Mo
   0.1333333333333333    0.3333333333333333    0.5000000000000000 Mo
  -0.0000000000000000    0.4000000000000000    0.5000000000000000 Mo
   0.1333333333333333    0.5333333333333334    0.5000000000000000 Mo
   0.0000000000000000    0.6000000000000000    0.5000000000000000 Mo
   0.1333333333333333    0.7333333333333334    0.5000000000000000 Mo
  -0.0000000000000000    0.8000000000000000    0.5000000000000000 Mo
   0.1333333333333332    0.9333333333333332    0.5000000000000000 Mo
   0.2000000000000000    0.0000000000000000    0.5000000000000000 Mo
   0.3333333333333333    0.1333333333333333    0.5000000000000000 Mo
   0.3333333333333333    0.3333333333333333    0.5000000000000000 Mo
   0.3333333333333333    0.5333333333333334    0.5000000000000000 Mo
   0.3333333333333333    0.7333333333333334    0.5000000000000000 Mo
   0.4000000000000000    0.0000000000000000    0.5000000000000000 Mo
   0.5333333333333334    0.1333333333333333    0.5000000000000000 Mo
   0.5333333333333334    0.3333333333333333    0.5000000000000000 Mo
   0.5333333333333333    0.5333333333333334    0.5000000000000000 Mo
   0.3999999999999999    0.8000000000000000    0.5000000000000000 Mo
   0.6000000000000000    0.0000000000000000    0.5000000000000000 Mo
   0.7333333333333334    0.1333333333333333    0.5000000000000000 Mo
   0.7333333333333334    0.3333333333333333    0.5000000000000000 Mo
   0.6000000000000000    0.6000000000000000    0.5000000000000000 Mo
   0.6000000000000000    0.8000000000000000    0.5000000000000000 Mo
   0.7999999999999999    0.0000000000000000    0.5000000000000000 Mo
   0.9333333333333332    0.1333333333333333    0.5000000000000000 Mo
   0.8000000000000000    0.4000000000000000    0.5000000000000000 Mo
   0.7999999999999999    0.6000000000000000    0.5000000000000000 Mo
   0.7999999999999999    0.8000000000000000    0.5000000000000000 Mo
   0.0666666666666667    0.0666666666666667    0.4150000000000000 Te
   0.0666666666666667    0.0666666666666667    0.5850000000000000 Te
   0.0666666666666667    0.2666666666666667    0.4150000000000000 Te
   0.0666666666666667    0.2666666666666667    0.5850000000000000 Te
   0.0666666666666667    0.4666666666666667    0.4150000000000000 Te
   0.0666666666666667    0.4666666666666667    0.5850000000000000 Te
   0.0666666666666666    0.6666666666666666    0.4150000000000000 Te
   0.0666666666666666    0.6666666666666666    0.5850000000000000 Te
   0.0666666666666667    0.8666666666666666    0.4150000000000000 Te
   0.0666666666666667    0.8666666666666666    0.5850000000000000 Te
   0.2666666666666667    0.0666666666666667    0.4150000000000000 Te
   0.2666666666666667    0.0666666666666667    0.5850000000000000 Te
   0.2666666666666667    0.2666666666666667    0.4150000000000000 Te
   0.2666666666666667    0.2666666666666667    0.5850000000000000 Te
   0.2666666666666667    0.4666666666666667    0.4150000000000000 Te
   0.2666666666666667    0.4666666666666667    0.5850000000000000 Te
   0.2666666666666667    0.6666666666666666    0.4150000000000000 Te
   0.2666666666666667    0.6666666666666666    0.5850000000000000 Te
   0.2666666666666667    0.8666666666666666    0.4150000000000000 Te
   0.2666666666666667    0.8666666666666666    0.5850000000000000 Te
   0.4666666666666667    0.0666666666666667    0.4150000000000000 Te
   0.4666666666666667    0.0666666666666667    0.5850000000000000 Te
   0.4666666666666667    0.2666666666666667    0.4150000000000000 Te
   0.4666666666666667    0.2666666666666667    0.5850000000000000 Te
   0.4666666666666667    0.4666666666666667    0.4150000000000000 Te
   0.4666666666666667    0.4666666666666667    0.5850000000000000 Te
   0.4666666666666667    0.6666666666666666    0.4150000000000000 Te
   0.4666666666666667    0.6666666666666666    0.5850000000000000 Te
   0.4666666666666667    0.8666666666666666    0.4150000000000000 Te
   0.4666666666666667    0.8666666666666666    0.5850000000000000 Te
   0.6666666666666666    0.0666666666666667    0.4150000000000000 Te
   0.6666666666666666    0.0666666666666667    0.5850000000000000 Te
   0.6666666666666666    0.2666666666666667    0.4150000000000000 Te
   0.6666666666666666    0.2666666666666667    0.5850000000000000 Te
   0.6666666666666666    0.4666666666666667    0.4150000000000000 Te
   0.6666666666666666    0.4666666666666667    0.5850000000000000 Te
   0.6666666666666666    0.6666666666666666    0.4150000000000000 Te
   0.6666666666666666    0.6666666666666666    0.5850000000000000 Te
   0.6666666666666666    0.8666666666666666    0.4150000000000000 Te
   0.6666666666666666    0.8666666666666666    0.5850000000000000 Te
   0.8666666666666666    0.0666666666666667    0.4150000000000000 Te
   0.8666666666666666    0.0666666666666667    0.5850000000000000 Te
   0.8666666666666666    0.2666666666666667    0.4150000000000000 Te
   0.8666666666666666    0.2666666666666667    0.5850000000000000 Te
   0.8666666666666665    0.4666666666666667    0.4150000000000000 Te
   0.8666666666666665    0.4666666666666667    0.5850000000000000 Te
   0.8666666666666664    0.6666666666666666    0.4150000000000000 Te
   0.8666666666666664    0.6666666666666666    0.5850000000000000 Te
   0.8666666666666666    0.8666666666666666    0.4150000000000000 Te
   0.8666666666666666    0.8666666666666666    0.5850000000000000 Te
